language ESSENCE' 1.0
$ minion Nodes: 1
$ minion TotalTime: 0.00061
$ Savile Row TotalTime: 0.239
letting pain_tuple3 be [3;int(1)]
letting pain_tuple2_tuple1_tuple2 be [11;int(1)]
letting pain_tuple1_tuple1 be [5;int(1)]
letting pain_tuple1_tuple2 be [6;int(1)]
letting pain_tuple2_tuple1_tuple1 be [10;int(1)]
letting pain_tuple2_tuple2 be [12;int(1)]
